p cnf 1325 3329
1 0
2 0
3 0
4 0
5 0
6 0
7 0
8 0
9 0
10 0
-11 0
-12 0
-13 0
-14 0
-15 0
-16 0
-17 0
-18 0
-19 0
-20 0
21 22 0
23 22 0
24 22 0
25 22 0
26 22 0
27 22 0
28 22 0
-29 0
-1 22 -30 0
1 -22 -30 0
30 -22 -1 0
1 22 30 0
-30 0
23 31 0
24 31 0
25 31 0
26 31 0
27 31 0
28 31 0
-32 0
-33 31 -34 0
33 -31 -34 0
34 -31 -33 0
33 31 34 0
-34 0
24 35 0
25 35 0
26 35 0
27 35 0
28 35 0
-36 0
-37 35 -38 0
37 -35 -38 0
38 -35 -37 0
37 35 38 0
-38 0
-39 35 -40 0
39 -35 -40 0
40 -35 -39 0
39 35 40 0
-40 0
-41 35 -42 0
41 -35 -42 0
42 -35 -41 0
41 35 42 0
-42 0
-43 35 -44 0
43 -35 -44 0
44 -35 -43 0
43 35 44 0
-44 0
-45 35 -46 0
45 -35 -46 0
46 -35 -45 0
45 35 46 0
-46 0
47 48 0
49 48 0
50 48 0
51 48 0
52 48 0
53 48 0
54 48 0
55 48 0
56 48 0
57 48 0
58 48 0
-59 0
-2 48 -60 0
2 -48 -60 0
60 -48 -2 0
2 48 60 0
-60 0
49 61 0
50 61 0
51 61 0
52 61 0
53 61 0
54 61 0
55 61 0
56 61 0
57 61 0
58 61 0
-62 0
-63 61 -64 0
63 -61 -64 0
64 -61 -63 0
63 61 64 0
-64 0
50 65 0
51 65 0
52 65 0
53 65 0
54 65 0
55 65 0
56 65 0
57 65 0
58 65 0
-66 0
-67 65 -68 0
67 -65 -68 0
68 -65 -67 0
67 65 68 0
-68 0
51 69 0
52 69 0
53 69 0
54 69 0
55 69 0
56 69 0
57 69 0
58 69 0
-70 0
-71 69 -72 0
71 -69 -72 0
72 -69 -71 0
71 69 72 0
-72 0
52 73 0
53 73 0
54 73 0
55 73 0
56 73 0
57 73 0
58 73 0
-74 0
-75 73 -76 0
75 -73 -76 0
76 -73 -75 0
75 73 76 0
-76 0
53 77 0
54 77 0
55 77 0
56 77 0
57 77 0
58 77 0
-78 0
-79 77 -80 0
79 -77 -80 0
80 -77 -79 0
79 77 80 0
-80 0
-81 77 -82 0
81 -77 -82 0
82 -77 -81 0
81 77 82 0
-82 0
-83 77 -84 0
83 -77 -84 0
84 -77 -83 0
83 77 84 0
-84 0
-85 77 -86 0
85 -77 -86 0
86 -77 -85 0
85 77 86 0
-86 0
-87 77 -88 0
87 -77 -88 0
88 -77 -87 0
87 77 88 0
-88 0
-89 77 -90 0
89 -77 -90 0
90 -77 -89 0
89 77 90 0
-90 0
91 92 0
93 92 0
94 92 0
95 92 0
96 92 0
97 92 0
98 92 0
99 92 0
100 92 0
101 92 0
-102 0
-3 92 -103 0
3 -92 -103 0
103 -92 -3 0
3 92 103 0
-103 0
93 104 0
94 104 0
95 104 0
96 104 0
97 104 0
98 104 0
99 104 0
100 104 0
101 104 0
-105 0
-106 104 -107 0
106 -104 -107 0
107 -104 -106 0
106 104 107 0
-107 0
94 108 0
95 108 0
96 108 0
97 108 0
98 108 0
99 108 0
100 108 0
101 108 0
-109 0
-110 108 -111 0
110 -108 -111 0
111 -108 -110 0
110 108 111 0
-111 0
95 112 0
96 112 0
97 112 0
98 112 0
99 112 0
100 112 0
101 112 0
-113 0
-114 112 -115 0
114 -112 -115 0
115 -112 -114 0
114 112 115 0
-115 0
96 116 0
97 116 0
98 116 0
99 116 0
100 116 0
101 116 0
-117 0
-118 116 -119 0
118 -116 -119 0
119 -116 -118 0
118 116 119 0
-119 0
97 120 0
98 120 0
99 120 0
100 120 0
101 120 0
-121 0
-122 120 -123 0
122 -120 -123 0
123 -120 -122 0
122 120 123 0
-123 0
-124 120 -125 0
124 -120 -125 0
125 -120 -124 0
124 120 125 0
-125 0
-126 120 -127 0
126 -120 -127 0
127 -120 -126 0
126 120 127 0
-127 0
-128 120 -129 0
128 -120 -129 0
129 -120 -128 0
128 120 129 0
-129 0
-130 120 -131 0
130 -120 -131 0
131 -120 -130 0
130 120 131 0
-131 0
132 133 0
134 133 0
135 133 0
136 133 0
-137 0
-4 133 -138 0
4 -133 -138 0
138 -133 -4 0
4 133 138 0
-138 0
134 139 0
135 139 0
136 139 0
-134 -135 -136 -139 0
-140 139 -141 0
140 -139 -141 0
141 -139 -140 0
140 139 141 0
-141 0
135 142 0
136 142 0
-135 -136 -142 0
-143 142 -144 0
143 -142 -144 0
144 -142 -143 0
143 142 144 0
-144 0
145 -136 0
136 -145 0
146 147 0
148 147 0
149 147 0
150 147 0
151 147 0
152 147 0
153 147 0
154 147 0
155 147 0
156 147 0
-157 0
-5 147 -158 0
5 -147 -158 0
158 -147 -5 0
5 147 158 0
-158 0
148 159 0
149 159 0
150 159 0
151 159 0
152 159 0
153 159 0
154 159 0
155 159 0
156 159 0
-160 0
-161 159 -162 0
161 -159 -162 0
162 -159 -161 0
161 159 162 0
-162 0
149 163 0
150 163 0
151 163 0
152 163 0
153 163 0
154 163 0
155 163 0
156 163 0
-164 0
-165 163 -166 0
165 -163 -166 0
166 -163 -165 0
165 163 166 0
-166 0
150 167 0
151 167 0
152 167 0
153 167 0
154 167 0
155 167 0
156 167 0
-168 0
-169 167 -170 0
169 -167 -170 0
170 -167 -169 0
169 167 170 0
-170 0
151 171 0
152 171 0
153 171 0
154 171 0
155 171 0
156 171 0
-172 0
-173 171 -174 0
173 -171 -174 0
174 -171 -173 0
173 171 174 0
-174 0
152 175 0
153 175 0
154 175 0
155 175 0
156 175 0
-176 0
-177 175 -178 0
177 -175 -178 0
178 -175 -177 0
177 175 178 0
-178 0
-179 175 -180 0
179 -175 -180 0
180 -175 -179 0
179 175 180 0
-180 0
-181 175 -182 0
181 -175 -182 0
182 -175 -181 0
181 175 182 0
-182 0
-183 175 -184 0
183 -175 -184 0
184 -175 -183 0
183 175 184 0
-184 0
-185 175 -186 0
185 -175 -186 0
186 -175 -185 0
185 175 186 0
-186 0
152 187 0
153 187 0
154 187 0
155 187 0
156 187 0
188 187 0
189 187 0
190 187 0
191 187 0
-192 0
-6 187 -193 0
6 -187 -193 0
193 -187 -6 0
6 187 193 0
-193 0
152 194 0
153 194 0
154 194 0
155 194 0
156 194 0
189 194 0
190 194 0
191 194 0
-195 0
-196 194 -197 0
196 -194 -197 0
197 -194 -196 0
196 194 197 0
-197 0
152 198 0
153 198 0
154 198 0
155 198 0
156 198 0
190 198 0
191 198 0
-199 0
-200 198 -201 0
200 -198 -201 0
201 -198 -200 0
200 198 201 0
-201 0
152 202 0
153 202 0
154 202 0
155 202 0
156 202 0
191 202 0
-203 0
-204 202 -205 0
204 -202 -205 0
205 -202 -204 0
204 202 205 0
-205 0
206 207 0
208 207 0
209 207 0
210 207 0
211 207 0
212 207 0
213 207 0
214 207 0
215 207 0
216 207 0
217 207 0
-218 0
-7 207 -219 0
7 -207 -219 0
219 -207 -7 0
7 207 219 0
-219 0
208 220 0
209 220 0
210 220 0
211 220 0
212 220 0
213 220 0
214 220 0
215 220 0
216 220 0
217 220 0
-221 0
-222 220 -223 0
222 -220 -223 0
223 -220 -222 0
222 220 223 0
-223 0
209 224 0
210 224 0
211 224 0
212 224 0
213 224 0
214 224 0
215 224 0
216 224 0
217 224 0
-225 0
-226 224 -227 0
226 -224 -227 0
227 -224 -226 0
226 224 227 0
-227 0
210 228 0
211 228 0
212 228 0
213 228 0
214 228 0
215 228 0
216 228 0
217 228 0
-229 0
-230 228 -231 0
230 -228 -231 0
231 -228 -230 0
230 228 231 0
-231 0
211 232 0
212 232 0
213 232 0
214 232 0
215 232 0
216 232 0
217 232 0
-233 0
-234 232 -235 0
234 -232 -235 0
235 -232 -234 0
234 232 235 0
-235 0
212 236 0
213 236 0
214 236 0
215 236 0
216 236 0
217 236 0
-237 0
-238 236 -239 0
238 -236 -239 0
239 -236 -238 0
238 236 239 0
-239 0
-240 236 -241 0
240 -236 -241 0
241 -236 -240 0
240 236 241 0
-241 0
-242 236 -243 0
242 -236 -243 0
243 -236 -242 0
242 236 243 0
-243 0
-244 236 -245 0
244 -236 -245 0
245 -236 -244 0
244 236 245 0
-245 0
-246 236 -247 0
246 -236 -247 0
247 -236 -246 0
246 236 247 0
-247 0
-248 236 -249 0
248 -236 -249 0
249 -236 -248 0
248 236 249 0
-249 0
250 251 0
252 251 0
253 251 0
254 251 0
255 251 0
256 251 0
257 251 0
258 251 0
259 251 0
-260 0
-8 251 -261 0
8 -251 -261 0
261 -251 -8 0
8 251 261 0
-261 0
252 262 0
253 262 0
254 262 0
255 262 0
256 262 0
257 262 0
258 262 0
259 262 0
-263 0
-264 262 -265 0
264 -262 -265 0
265 -262 -264 0
264 262 265 0
-265 0
253 266 0
254 266 0
255 266 0
256 266 0
257 266 0
258 266 0
259 266 0
-267 0
-268 266 -269 0
268 -266 -269 0
269 -266 -268 0
268 266 269 0
-269 0
254 270 0
255 270 0
256 270 0
257 270 0
258 270 0
259 270 0
-271 0
-272 270 -273 0
272 -270 -273 0
273 -270 -272 0
272 270 273 0
-273 0
255 274 0
256 274 0
257 274 0
258 274 0
259 274 0
-275 0
-276 274 -277 0
276 -274 -277 0
277 -274 -276 0
276 274 277 0
-277 0
256 278 0
257 278 0
258 278 0
259 278 0
-279 0
-280 278 -281 0
280 -278 -281 0
281 -278 -280 0
280 278 281 0
-281 0
-282 278 -283 0
282 -278 -283 0
283 -278 -282 0
282 278 283 0
-283 0
-284 278 -285 0
284 -278 -285 0
285 -278 -284 0
284 278 285 0
-285 0
-286 278 -287 0
286 -278 -287 0
287 -278 -286 0
286 278 287 0
-287 0
288 289 0
290 289 0
291 289 0
292 289 0
293 289 0
294 289 0
295 289 0
296 289 0
297 289 0
298 289 0
299 289 0
-300 0
-9 289 -301 0
9 -289 -301 0
301 -289 -9 0
9 289 301 0
-301 0
290 302 0
291 302 0
292 302 0
293 302 0
294 302 0
295 302 0
296 302 0
297 302 0
298 302 0
299 302 0
-303 0
-304 302 -305 0
304 -302 -305 0
305 -302 -304 0
304 302 305 0
-305 0
291 306 0
292 306 0
293 306 0
294 306 0
295 306 0
296 306 0
297 306 0
298 306 0
299 306 0
-307 0
-308 306 -309 0
308 -306 -309 0
309 -306 -308 0
308 306 309 0
-309 0
292 310 0
293 310 0
294 310 0
295 310 0
296 310 0
297 310 0
298 310 0
299 310 0
-311 0
-312 310 -313 0
312 -310 -313 0
313 -310 -312 0
312 310 313 0
-313 0
293 314 0
294 314 0
295 314 0
296 314 0
297 314 0
298 314 0
299 314 0
-315 0
-316 314 -317 0
316 -314 -317 0
317 -314 -316 0
316 314 317 0
-317 0
294 318 0
295 318 0
296 318 0
297 318 0
298 318 0
299 318 0
-319 0
-320 318 -321 0
320 -318 -321 0
321 -318 -320 0
320 318 321 0
-321 0
-322 318 -323 0
322 -318 -323 0
323 -318 -322 0
322 318 323 0
-323 0
-324 318 -325 0
324 -318 -325 0
325 -318 -324 0
324 318 325 0
-325 0
-326 318 -327 0
326 -318 -327 0
327 -318 -326 0
326 318 327 0
-327 0
-328 318 -329 0
328 -318 -329 0
329 -318 -328 0
328 318 329 0
-329 0
-330 318 -331 0
330 -318 -331 0
331 -318 -330 0
330 318 331 0
-331 0
332 333 0
334 333 0
335 333 0
336 333 0
337 333 0
338 333 0
339 333 0
340 333 0
341 333 0
342 333 0
-343 0
-10 333 -344 0
10 -333 -344 0
344 -333 -10 0
10 333 344 0
-344 0
334 345 0
335 345 0
336 345 0
337 345 0
338 345 0
339 345 0
340 345 0
341 345 0
342 345 0
-346 0
-347 345 -348 0
347 -345 -348 0
348 -345 -347 0
347 345 348 0
-348 0
335 349 0
336 349 0
337 349 0
338 349 0
339 349 0
340 349 0
341 349 0
342 349 0
-350 0
-351 349 -352 0
351 -349 -352 0
352 -349 -351 0
351 349 352 0
-352 0
336 353 0
337 353 0
338 353 0
339 353 0
340 353 0
341 353 0
342 353 0
-354 0
-355 353 -356 0
355 -353 -356 0
356 -353 -355 0
355 353 356 0
-356 0
337 357 0
338 357 0
339 357 0
340 357 0
341 357 0
342 357 0
-358 0
-359 357 -360 0
359 -357 -360 0
360 -357 -359 0
359 357 360 0
-360 0
-361 357 -362 0
361 -357 -362 0
362 -357 -361 0
361 357 362 0
-362 0
-363 357 -364 0
363 -357 -364 0
364 -357 -363 0
363 357 364 0
-364 0
-365 357 -366 0
365 -357 -366 0
366 -357 -365 0
365 357 366 0
-366 0
-367 357 -368 0
367 -357 -368 0
368 -357 -367 0
367 357 368 0
-368 0
-369 357 -370 0
369 -357 -370 0
370 -357 -369 0
369 357 370 0
-370 0
371 372 0
373 372 0
374 372 0
375 372 0
376 372 0
377 372 0
378 372 0
379 372 0
380 372 0
-381 0
-11 372 -382 0
11 -372 -382 0
382 -372 -11 0
11 372 382 0
-382 0
373 383 0
374 383 0
375 383 0
376 383 0
377 383 0
378 383 0
379 383 0
380 383 0
-384 0
-385 383 -386 0
385 -383 -386 0
386 -383 -385 0
385 383 386 0
-386 0
374 387 0
375 387 0
376 387 0
377 387 0
378 387 0
379 387 0
380 387 0
-388 0
-389 387 -390 0
389 -387 -390 0
390 -387 -389 0
389 387 390 0
-390 0
375 391 0
376 391 0
377 391 0
378 391 0
379 391 0
380 391 0
-392 0
-393 391 -394 0
393 -391 -394 0
394 -391 -393 0
393 391 394 0
-394 0
376 395 0
377 395 0
378 395 0
379 395 0
380 395 0
-396 0
-397 395 -398 0
397 -395 -398 0
398 -395 -397 0
397 395 398 0
-398 0
-399 395 -400 0
399 -395 -400 0
400 -395 -399 0
399 395 400 0
-400 0
-401 395 -402 0
401 -395 -402 0
402 -395 -401 0
401 395 402 0
-402 0
-403 395 -404 0
403 -395 -404 0
404 -395 -403 0
403 395 404 0
-404 0
-405 395 -406 0
405 -395 -406 0
406 -395 -405 0
405 395 406 0
-406 0
407 408 0
409 408 0
410 408 0
411 408 0
412 408 0
413 408 0
414 408 0
415 408 0
416 408 0
417 408 0
418 408 0
-419 0
-12 408 -420 0
12 -408 -420 0
420 -408 -12 0
12 408 420 0
-420 0
409 421 0
410 421 0
411 421 0
412 421 0
413 421 0
414 421 0
415 421 0
416 421 0
417 421 0
418 421 0
-422 0
-423 421 -424 0
423 -421 -424 0
424 -421 -423 0
423 421 424 0
-424 0
410 425 0
411 425 0
412 425 0
413 425 0
414 425 0
415 425 0
416 425 0
417 425 0
418 425 0
-426 0
-427 425 -428 0
427 -425 -428 0
428 -425 -427 0
427 425 428 0
-428 0
411 429 0
412 429 0
413 429 0
414 429 0
415 429 0
416 429 0
417 429 0
418 429 0
-430 0
-431 429 -432 0
431 -429 -432 0
432 -429 -431 0
431 429 432 0
-432 0
412 433 0
413 433 0
414 433 0
415 433 0
416 433 0
417 433 0
418 433 0
-434 0
-435 433 -436 0
435 -433 -436 0
436 -433 -435 0
435 433 436 0
-436 0
413 437 0
414 437 0
415 437 0
416 437 0
417 437 0
418 437 0
-438 0
-439 437 -440 0
439 -437 -440 0
440 -437 -439 0
439 437 440 0
-440 0
-441 437 -442 0
441 -437 -442 0
442 -437 -441 0
441 437 442 0
-442 0
-443 437 -444 0
443 -437 -444 0
444 -437 -443 0
443 437 444 0
-444 0
-445 437 -446 0
445 -437 -446 0
446 -437 -445 0
445 437 446 0
-446 0
-447 437 -448 0
447 -437 -448 0
448 -437 -447 0
447 437 448 0
-448 0
-449 437 -450 0
449 -437 -450 0
450 -437 -449 0
449 437 450 0
-450 0
451 452 0
453 452 0
454 452 0
455 452 0
456 452 0
457 452 0
458 452 0
459 452 0
460 452 0
461 452 0
462 452 0
-463 0
-13 452 -464 0
13 -452 -464 0
464 -452 -13 0
13 452 464 0
-464 0
453 465 0
454 465 0
455 465 0
456 465 0
457 465 0
458 465 0
459 465 0
460 465 0
461 465 0
462 465 0
-466 0
-467 465 -468 0
467 -465 -468 0
468 -465 -467 0
467 465 468 0
-468 0
454 469 0
455 469 0
456 469 0
457 469 0
458 469 0
459 469 0
460 469 0
461 469 0
462 469 0
-470 0
-471 469 -472 0
471 -469 -472 0
472 -469 -471 0
471 469 472 0
-472 0
455 473 0
456 473 0
457 473 0
458 473 0
459 473 0
460 473 0
461 473 0
462 473 0
-474 0
-475 473 -476 0
475 -473 -476 0
476 -473 -475 0
475 473 476 0
-476 0
456 477 0
457 477 0
458 477 0
459 477 0
460 477 0
461 477 0
462 477 0
-478 0
-479 477 -480 0
479 -477 -480 0
480 -477 -479 0
479 477 480 0
-480 0
457 481 0
458 481 0
459 481 0
460 481 0
461 481 0
462 481 0
-482 0
-483 481 -484 0
483 -481 -484 0
484 -481 -483 0
483 481 484 0
-484 0
-485 481 -486 0
485 -481 -486 0
486 -481 -485 0
485 481 486 0
-486 0
-487 481 -488 0
487 -481 -488 0
488 -481 -487 0
487 481 488 0
-488 0
-489 481 -490 0
489 -481 -490 0
490 -481 -489 0
489 481 490 0
-490 0
-491 481 -492 0
491 -481 -492 0
492 -481 -491 0
491 481 492 0
-492 0
-493 481 -494 0
493 -481 -494 0
494 -481 -493 0
493 481 494 0
-494 0
495 496 0
497 496 0
498 496 0
499 496 0
500 496 0
501 496 0
502 496 0
503 496 0
-504 0
-14 496 -505 0
14 -496 -505 0
505 -496 -14 0
14 496 505 0
-505 0
497 506 0
498 506 0
499 506 0
500 506 0
501 506 0
502 506 0
503 506 0
-507 0
-508 506 -509 0
508 -506 -509 0
509 -506 -508 0
508 506 509 0
-509 0
498 510 0
499 510 0
500 510 0
501 510 0
502 510 0
503 510 0
-511 0
-512 510 -513 0
512 -510 -513 0
513 -510 -512 0
512 510 513 0
-513 0
499 514 0
500 514 0
501 514 0
502 514 0
503 514 0
-515 0
-516 514 -517 0
516 -514 -517 0
517 -514 -516 0
516 514 517 0
-517 0
500 518 0
501 518 0
502 518 0
503 518 0
-519 0
-520 518 -521 0
520 -518 -521 0
521 -518 -520 0
520 518 521 0
-521 0
-522 518 -523 0
522 -518 -523 0
523 -518 -522 0
522 518 523 0
-523 0
-524 518 -525 0
524 -518 -525 0
525 -518 -524 0
524 518 525 0
-525 0
-526 518 -527 0
526 -518 -527 0
527 -518 -526 0
526 518 527 0
-527 0
528 529 0
530 529 0
531 529 0
532 529 0
533 529 0
534 529 0
-535 0
-15 529 -536 0
15 -529 -536 0
536 -529 -15 0
15 529 536 0
-536 0
530 537 0
531 537 0
532 537 0
533 537 0
534 537 0
-538 0
-539 537 -540 0
539 -537 -540 0
540 -537 -539 0
539 537 540 0
-540 0
531 541 0
532 541 0
533 541 0
534 541 0
-542 0
-543 541 -544 0
543 -541 -544 0
544 -541 -543 0
543 541 544 0
-544 0
-545 541 -546 0
545 -541 -546 0
546 -541 -545 0
545 541 546 0
-546 0
-547 541 -548 0
547 -541 -548 0
548 -541 -547 0
547 541 548 0
-548 0
-549 541 -550 0
549 -541 -550 0
550 -541 -549 0
549 541 550 0
-550 0
551 552 0
553 552 0
554 552 0
555 552 0
556 552 0
557 552 0
558 552 0
559 552 0
560 552 0
561 552 0
562 552 0
-563 0
-16 552 -564 0
16 -552 -564 0
564 -552 -16 0
16 552 564 0
-564 0
553 565 0
554 565 0
555 565 0
556 565 0
557 565 0
558 565 0
559 565 0
560 565 0
561 565 0
562 565 0
-566 0
-567 565 -568 0
567 -565 -568 0
568 -565 -567 0
567 565 568 0
-568 0
554 569 0
555 569 0
556 569 0
557 569 0
558 569 0
559 569 0
560 569 0
561 569 0
562 569 0
-570 0
-571 569 -572 0
571 -569 -572 0
572 -569 -571 0
571 569 572 0
-572 0
555 573 0
556 573 0
557 573 0
558 573 0
559 573 0
560 573 0
561 573 0
562 573 0
-574 0
-575 573 -576 0
575 -573 -576 0
576 -573 -575 0
575 573 576 0
-576 0
556 577 0
557 577 0
558 577 0
559 577 0
560 577 0
561 577 0
562 577 0
-578 0
-579 577 -580 0
579 -577 -580 0
580 -577 -579 0
579 577 580 0
-580 0
557 581 0
558 581 0
559 581 0
560 581 0
561 581 0
562 581 0
-582 0
-583 581 -584 0
583 -581 -584 0
584 -581 -583 0
583 581 584 0
-584 0
-585 581 -586 0
585 -581 -586 0
586 -581 -585 0
585 581 586 0
-586 0
-587 581 -588 0
587 -581 -588 0
588 -581 -587 0
587 581 588 0
-588 0
-589 581 -590 0
589 -581 -590 0
590 -581 -589 0
589 581 590 0
-590 0
-591 581 -592 0
591 -581 -592 0
592 -581 -591 0
591 581 592 0
-592 0
-593 581 -594 0
593 -581 -594 0
594 -581 -593 0
593 581 594 0
-594 0
595 596 0
597 596 0
598 596 0
599 596 0
600 596 0
601 596 0
602 596 0
603 596 0
604 596 0
605 596 0
-606 0
-17 596 -607 0
17 -596 -607 0
607 -596 -17 0
17 596 607 0
-607 0
597 608 0
598 608 0
599 608 0
600 608 0
601 608 0
602 608 0
603 608 0
604 608 0
605 608 0
-609 0
-610 608 -611 0
610 -608 -611 0
611 -608 -610 0
610 608 611 0
-611 0
598 612 0
599 612 0
600 612 0
601 612 0
602 612 0
603 612 0
604 612 0
605 612 0
-613 0
-614 612 -615 0
614 -612 -615 0
615 -612 -614 0
614 612 615 0
-615 0
599 616 0
600 616 0
601 616 0
602 616 0
603 616 0
604 616 0
605 616 0
-617 0
-618 616 -619 0
618 -616 -619 0
619 -616 -618 0
618 616 619 0
-619 0
600 620 0
601 620 0
602 620 0
603 620 0
604 620 0
605 620 0
-621 0
-622 620 -623 0
622 -620 -623 0
623 -620 -622 0
622 620 623 0
-623 0
-624 620 -625 0
624 -620 -625 0
625 -620 -624 0
624 620 625 0
-625 0
-626 620 -627 0
626 -620 -627 0
627 -620 -626 0
626 620 627 0
-627 0
-628 620 -629 0
628 -620 -629 0
629 -620 -628 0
628 620 629 0
-629 0
-630 620 -631 0
630 -620 -631 0
631 -620 -630 0
630 620 631 0
-631 0
-632 620 -633 0
632 -620 -633 0
633 -620 -632 0
632 620 633 0
-633 0
634 635 0
636 635 0
637 635 0
638 635 0
639 635 0
640 635 0
641 635 0
642 635 0
643 635 0
644 635 0
645 635 0
646 635 0
-647 0
-18 635 -648 0
18 -635 -648 0
648 -635 -18 0
18 635 648 0
-648 0
636 649 0
637 649 0
638 649 0
639 649 0
640 649 0
641 649 0
642 649 0
643 649 0
644 649 0
645 649 0
646 649 0
-650 0
-651 649 -652 0
651 -649 -652 0
652 -649 -651 0
651 649 652 0
-652 0
637 653 0
638 653 0
639 653 0
640 653 0
641 653 0
642 653 0
643 653 0
644 653 0
645 653 0
646 653 0
-654 0
-655 653 -656 0
655 -653 -656 0
656 -653 -655 0
655 653 656 0
-656 0
638 657 0
639 657 0
640 657 0
641 657 0
642 657 0
643 657 0
644 657 0
645 657 0
646 657 0
-658 0
-659 657 -660 0
659 -657 -660 0
660 -657 -659 0
659 657 660 0
-660 0
639 661 0
640 661 0
641 661 0
642 661 0
643 661 0
644 661 0
645 661 0
646 661 0
-662 0
-663 661 -664 0
663 -661 -664 0
664 -661 -663 0
663 661 664 0
-664 0
640 665 0
641 665 0
642 665 0
643 665 0
644 665 0
645 665 0
646 665 0
-666 0
-667 665 -668 0
667 -665 -668 0
668 -665 -667 0
667 665 668 0
-668 0
641 669 0
642 669 0
643 669 0
644 669 0
645 669 0
646 669 0
-670 0
-671 669 -672 0
671 -669 -672 0
672 -669 -671 0
671 669 672 0
-672 0
-673 669 -674 0
673 -669 -674 0
674 -669 -673 0
673 669 674 0
-674 0
-675 669 -676 0
675 -669 -676 0
676 -669 -675 0
675 669 676 0
-676 0
-677 669 -678 0
677 -669 -678 0
678 -669 -677 0
677 669 678 0
-678 0
-679 669 -680 0
679 -669 -680 0
680 -669 -679 0
679 669 680 0
-680 0
-681 669 -682 0
681 -669 -682 0
682 -669 -681 0
681 669 682 0
-682 0
683 684 0
685 684 0
686 684 0
687 684 0
688 684 0
689 684 0
690 684 0
691 684 0
692 684 0
693 684 0
-694 0
-19 684 -695 0
19 -684 -695 0
695 -684 -19 0
19 684 695 0
-695 0
685 696 0
686 696 0
687 696 0
688 696 0
689 696 0
690 696 0
691 696 0
692 696 0
693 696 0
-697 0
-698 696 -699 0
698 -696 -699 0
699 -696 -698 0
698 696 699 0
-699 0
686 700 0
687 700 0
688 700 0
689 700 0
690 700 0
691 700 0
692 700 0
693 700 0
-701 0
-702 700 -703 0
702 -700 -703 0
703 -700 -702 0
702 700 703 0
-703 0
687 704 0
688 704 0
689 704 0
690 704 0
691 704 0
692 704 0
693 704 0
-705 0
-706 704 -707 0
706 -704 -707 0
707 -704 -706 0
706 704 707 0
-707 0
688 708 0
689 708 0
690 708 0
691 708 0
692 708 0
693 708 0
-709 0
-710 708 -711 0
710 -708 -711 0
711 -708 -710 0
710 708 711 0
-711 0
689 712 0
690 712 0
691 712 0
692 712 0
693 712 0
-713 0
-714 712 -715 0
714 -712 -715 0
715 -712 -714 0
714 712 715 0
-715 0
690 716 0
691 716 0
692 716 0
693 716 0
-717 0
-718 716 -719 0
718 -716 -719 0
719 -716 -718 0
718 716 719 0
-719 0
-720 716 -721 0
720 -716 -721 0
721 -716 -720 0
720 716 721 0
-721 0
-722 716 -723 0
722 -716 -723 0
723 -716 -722 0
722 716 723 0
-723 0
-724 716 -725 0
724 -716 -725 0
725 -716 -724 0
724 716 725 0
-725 0
726 727 0
728 727 0
729 727 0
730 727 0
731 727 0
732 727 0
733 727 0
734 727 0
735 727 0
-736 0
-20 727 -737 0
20 -727 -737 0
737 -727 -20 0
20 727 737 0
-737 0
728 738 0
729 738 0
730 738 0
731 738 0
732 738 0
733 738 0
734 738 0
735 738 0
-739 0
-740 738 -741 0
740 -738 -741 0
741 -738 -740 0
740 738 741 0
-741 0
729 742 0
730 742 0
731 742 0
732 742 0
733 742 0
734 742 0
735 742 0
-743 0
-744 742 -745 0
744 -742 -745 0
745 -742 -744 0
744 742 745 0
-745 0
730 746 0
731 746 0
732 746 0
733 746 0
734 746 0
735 746 0
-747 0
-748 746 -749 0
748 -746 -749 0
749 -746 -748 0
748 746 749 0
-749 0
731 750 0
732 750 0
733 750 0
734 750 0
735 750 0
-751 0
-752 750 -753 0
752 -750 -753 0
753 -750 -752 0
752 750 753 0
-753 0
732 754 0
733 754 0
734 754 0
735 754 0
-755 0
-756 754 -757 0
756 -754 -757 0
757 -754 -756 0
756 754 757 0
-757 0
-758 754 -759 0
758 -754 -759 0
759 -754 -758 0
758 754 759 0
-759 0
-760 754 -761 0
760 -754 -761 0
761 -754 -760 0
760 754 761 0
-761 0
-762 754 -763 0
762 -754 -763 0
763 -754 -762 0
762 754 763 0
-763 0
764 765 0
-766 765 0
-764 766 -765 0
21 -765 0
-21 765 0
767 768 0
-769 768 0
-767 769 -768 0
23 -768 0
-23 768 0
770 771 0
-772 771 0
-770 772 -771 0
24 -771 0
-24 771 0
773 774 0
-775 774 0
-773 775 -774 0
25 -774 0
-25 774 0
776 777 0
-778 777 0
-776 778 -777 0
26 -777 0
-26 777 0
779 780 0
-781 780 0
-779 781 -780 0
27 -780 0
-27 780 0
782 783 0
-784 783 0
-782 784 -783 0
28 -783 0
-28 783 0
785 786 0
-787 786 0
-785 787 -786 0
47 -786 0
-47 786 0
788 789 0
-790 789 0
-788 790 -789 0
49 -789 0
-49 789 0
791 792 0
-793 792 0
-791 793 -792 0
50 -792 0
-50 792 0
794 795 0
-796 795 0
-794 796 -795 0
51 -795 0
-51 795 0
797 798 0
-799 798 0
-797 799 -798 0
52 -798 0
-52 798 0
800 801 0
-802 801 0
-800 802 -801 0
53 -801 0
-53 801 0
803 804 0
-805 804 0
-803 805 -804 0
54 -804 0
-54 804 0
806 807 0
-808 807 0
-806 808 -807 0
55 -807 0
-55 807 0
809 810 0
-811 810 0
-809 811 -810 0
56 -810 0
-56 810 0
812 813 0
-814 813 0
-812 814 -813 0
57 -813 0
-57 813 0
815 816 0
-817 816 0
-815 817 -816 0
58 -816 0
-58 816 0
818 819 0
-820 819 0
-818 820 -819 0
91 -819 0
-91 819 0
821 822 0
-823 822 0
-821 823 -822 0
93 -822 0
-93 822 0
824 825 0
-826 825 0
-824 826 -825 0
94 -825 0
-94 825 0
827 828 0
-829 828 0
-827 829 -828 0
95 -828 0
-95 828 0
830 831 0
-832 831 0
-830 832 -831 0
96 -831 0
-96 831 0
833 834 0
-835 834 0
-833 835 -834 0
97 -834 0
-97 834 0
836 837 0
-838 837 0
-836 838 -837 0
98 -837 0
-98 837 0
839 840 0
-841 840 0
-839 841 -840 0
99 -840 0
-99 840 0
842 843 0
-844 843 0
-842 844 -843 0
100 -843 0
-100 843 0
845 846 0
-847 846 0
-845 847 -846 0
101 -846 0
-101 846 0
848 849 0
-850 849 0
-848 850 -849 0
132 -849 0
-132 849 0
851 852 0
-853 852 0
-851 853 -852 0
134 -852 0
-134 852 0
854 855 0
-856 855 0
-854 856 -855 0
135 -855 0
-135 855 0
857 858 0
-859 858 0
-857 859 -858 0
136 -858 0
-136 858 0
860 861 0
-862 861 0
-860 862 -861 0
146 -861 0
-146 861 0
863 864 0
-865 864 0
-863 865 -864 0
148 -864 0
-148 864 0
866 867 0
-868 867 0
-866 868 -867 0
149 -867 0
-149 867 0
869 870 0
-871 870 0
-869 871 -870 0
150 -870 0
-150 870 0
872 873 0
-874 873 0
-872 874 -873 0
151 -873 0
-151 873 0
875 876 0
-877 876 0
-875 877 -876 0
152 -876 0
-152 876 0
878 879 0
-880 879 0
-878 880 -879 0
153 -879 0
-153 879 0
881 882 0
-883 882 0
-881 883 -882 0
154 -882 0
-154 882 0
884 885 0
-886 885 0
-884 886 -885 0
155 -885 0
-155 885 0
887 888 0
-889 888 0
-887 889 -888 0
156 -888 0
-156 888 0
890 891 0
-892 891 0
-890 892 -891 0
188 -891 0
-188 891 0
893 894 0
-895 894 0
-893 895 -894 0
189 -894 0
-189 894 0
896 897 0
-898 897 0
-896 898 -897 0
190 -897 0
-190 897 0
899 900 0
-901 900 0
-899 901 -900 0
191 -900 0
-191 900 0
902 903 0
-904 903 0
-902 904 -903 0
206 -903 0
-206 903 0
905 906 0
-907 906 0
-905 907 -906 0
208 -906 0
-208 906 0
908 909 0
-910 909 0
-908 910 -909 0
209 -909 0
-209 909 0
911 912 0
-913 912 0
-911 913 -912 0
210 -912 0
-210 912 0
914 915 0
-916 915 0
-914 916 -915 0
211 -915 0
-211 915 0
917 918 0
-919 918 0
-917 919 -918 0
212 -918 0
-212 918 0
920 921 0
-922 921 0
-920 922 -921 0
213 -921 0
-213 921 0
923 924 0
-925 924 0
-923 925 -924 0
214 -924 0
-214 924 0
926 927 0
-928 927 0
-926 928 -927 0
215 -927 0
-215 927 0
929 930 0
-931 930 0
-929 931 -930 0
216 -930 0
-216 930 0
932 933 0
-934 933 0
-932 934 -933 0
217 -933 0
-217 933 0
935 936 0
-937 936 0
-935 937 -936 0
250 -936 0
-250 936 0
938 939 0
-940 939 0
-938 940 -939 0
252 -939 0
-252 939 0
941 942 0
-943 942 0
-941 943 -942 0
253 -942 0
-253 942 0
944 945 0
-946 945 0
-944 946 -945 0
254 -945 0
-254 945 0
947 948 0
-949 948 0
-947 949 -948 0
255 -948 0
-255 948 0
950 951 0
-952 951 0
-950 952 -951 0
256 -951 0
-256 951 0
953 954 0
-955 954 0
-953 955 -954 0
257 -954 0
-257 954 0
956 957 0
-958 957 0
-956 958 -957 0
258 -957 0
-258 957 0
959 960 0
-961 960 0
-959 961 -960 0
259 -960 0
-259 960 0
962 963 0
-964 963 0
-962 964 -963 0
288 -963 0
-288 963 0
965 966 0
-967 966 0
-965 967 -966 0
290 -966 0
-290 966 0
968 969 0
-970 969 0
-968 970 -969 0
291 -969 0
-291 969 0
971 972 0
-973 972 0
-971 973 -972 0
292 -972 0
-292 972 0
974 975 0
-976 975 0
-974 976 -975 0
293 -975 0
-293 975 0
977 978 0
-979 978 0
-977 979 -978 0
294 -978 0
-294 978 0
980 981 0
-982 981 0
-980 982 -981 0
295 -981 0
-295 981 0
983 984 0
-985 984 0
-983 985 -984 0
296 -984 0
-296 984 0
986 987 0
-988 987 0
-986 988 -987 0
297 -987 0
-297 987 0
989 990 0
-991 990 0
-989 991 -990 0
298 -990 0
-298 990 0
992 993 0
-994 993 0
-992 994 -993 0
299 -993 0
-299 993 0
995 996 0
-997 996 0
-995 997 -996 0
332 -996 0
-332 996 0
998 999 0
-1000 999 0
-998 1000 -999 0
334 -999 0
-334 999 0
1001 1002 0
-1003 1002 0
-1001 1003 -1002 0
335 -1002 0
-335 1002 0
1004 1005 0
-1006 1005 0
-1004 1006 -1005 0
336 -1005 0
-336 1005 0
1007 1008 0
-1009 1008 0
-1007 1009 -1008 0
337 -1008 0
-337 1008 0
1010 1011 0
-1012 1011 0
-1010 1012 -1011 0
338 -1011 0
-338 1011 0
1013 1014 0
-1015 1014 0
-1013 1015 -1014 0
339 -1014 0
-339 1014 0
1016 1017 0
-1018 1017 0
-1016 1018 -1017 0
340 -1017 0
-340 1017 0
1019 1020 0
-1021 1020 0
-1019 1021 -1020 0
341 -1020 0
-341 1020 0
1022 1023 0
-1024 1023 0
-1022 1024 -1023 0
342 -1023 0
-342 1023 0
1025 1026 0
-1027 1026 0
-1025 1027 -1026 0
371 -1026 0
-371 1026 0
1028 1029 0
1029 -1030 0
-1028 1030 -1029 0
373 -1029 0
-373 1029 0
1031 1032 0
-1033 1032 0
-1031 1033 -1032 0
374 -1032 0
-374 1032 0
1034 1035 0
1035 -1036 0
-1034 1036 -1035 0
375 -1035 0
-375 1035 0
1037 1038 0
1038 -1039 0
-1037 1039 -1038 0
376 -1038 0
-376 1038 0
1040 1041 0
1041 -1042 0
-1040 1042 -1041 0
377 -1041 0
-377 1041 0
1043 1044 0
1044 -1045 0
-1043 1045 -1044 0
378 -1044 0
-378 1044 0
1046 1047 0
-1048 1047 0
-1046 1048 -1047 0
379 -1047 0
-379 1047 0
1049 1050 0
-1051 1050 0
-1049 1051 -1050 0
380 -1050 0
-380 1050 0
1052 1053 0
-1054 1053 0
-1052 1054 -1053 0
407 -1053 0
-407 1053 0
1055 1056 0
-1057 1056 0
-1055 1057 -1056 0
409 -1056 0
-409 1056 0
1058 1059 0
-1060 1059 0
-1058 1060 -1059 0
410 -1059 0
-410 1059 0
1061 1062 0
-1063 1062 0
-1061 1063 -1062 0
411 -1062 0
-411 1062 0
1064 1065 0
1065 -1066 0
-1064 1066 -1065 0
412 -1065 0
-412 1065 0
1067 1068 0
-1069 1068 0
-1067 1069 -1068 0
413 -1068 0
-413 1068 0
1070 1071 0
1071 -1072 0
-1070 1072 -1071 0
414 -1071 0
-414 1071 0
1073 1074 0
1074 -1075 0
-1073 1075 -1074 0
415 -1074 0
-415 1074 0
1076 1077 0
1077 -1078 0
-1076 1078 -1077 0
416 -1077 0
-416 1077 0
1079 1080 0
-1081 1080 0
-1079 1081 -1080 0
417 -1080 0
-417 1080 0
1082 1083 0
-1084 1083 0
-1082 1084 -1083 0
418 -1083 0
-418 1083 0
1085 1086 0
-1087 1086 0
-1085 1087 -1086 0
451 -1086 0
-451 1086 0
1088 1089 0
-1090 1089 0
-1088 1090 -1089 0
453 -1089 0
-453 1089 0
1091 1092 0
1092 -1093 0
-1091 1093 -1092 0
454 -1092 0
-454 1092 0
1094 1095 0
-1096 1095 0
-1094 1096 -1095 0
455 -1095 0
-455 1095 0
1097 1098 0
-1099 1098 0
-1097 1099 -1098 0
456 -1098 0
-456 1098 0
1100 1101 0
-1102 1101 0
-1100 1102 -1101 0
457 -1101 0
-457 1101 0
1103 1104 0
-1105 1104 0
-1103 1105 -1104 0
458 -1104 0
-458 1104 0
1106 1107 0
-1108 1107 0
-1106 1108 -1107 0
459 -1107 0
-459 1107 0
1109 1110 0
1110 -1111 0
-1109 1111 -1110 0
460 -1110 0
-460 1110 0
1112 1113 0
1113 -1114 0
-1112 1114 -1113 0
461 -1113 0
-461 1113 0
1115 1116 0
-1117 1116 0
-1115 1117 -1116 0
462 -1116 0
-462 1116 0
1118 1119 0
1119 -1120 0
-1118 1120 -1119 0
495 -1119 0
-495 1119 0
1121 1122 0
-1123 1122 0
-1121 1123 -1122 0
497 -1122 0
-497 1122 0
1124 1125 0
-1126 1125 0
-1124 1126 -1125 0
498 -1125 0
-498 1125 0
1127 1128 0
-1129 1128 0
-1127 1129 -1128 0
499 -1128 0
-499 1128 0
1130 1131 0
1131 -1132 0
-1130 1132 -1131 0
500 -1131 0
-500 1131 0
1133 1134 0
1134 -1135 0
-1133 1135 -1134 0
501 -1134 0
-501 1134 0
1136 1137 0
-1138 1137 0
-1136 1138 -1137 0
502 -1137 0
-502 1137 0
1139 1140 0
-1141 1140 0
-1139 1141 -1140 0
503 -1140 0
-503 1140 0
1142 1143 0
-1144 1143 0
-1142 1144 -1143 0
528 -1143 0
-528 1143 0
1145 1146 0
-1147 1146 0
-1145 1147 -1146 0
530 -1146 0
-530 1146 0
1148 1149 0
1149 -1150 0
-1148 1150 -1149 0
531 -1149 0
-531 1149 0
1151 1152 0
1152 -1153 0
-1151 1153 -1152 0
532 -1152 0
-532 1152 0
1154 1155 0
-1156 1155 0
-1154 1156 -1155 0
533 -1155 0
-533 1155 0
1157 1158 0
1158 -1159 0
-1157 1159 -1158 0
534 -1158 0
-534 1158 0
1160 1161 0
-1162 1161 0
-1160 1162 -1161 0
551 -1161 0
-551 1161 0
1163 1164 0
-1165 1164 0
-1163 1165 -1164 0
553 -1164 0
-553 1164 0
1166 1167 0
-1168 1167 0
-1166 1168 -1167 0
554 -1167 0
-554 1167 0
1169 1170 0
-1171 1170 0
-1169 1171 -1170 0
555 -1170 0
-555 1170 0
1172 1173 0
-1174 1173 0
-1172 1174 -1173 0
556 -1173 0
-556 1173 0
1175 1176 0
-1177 1176 0
-1175 1177 -1176 0
557 -1176 0
-557 1176 0
1178 1179 0
1179 -1180 0
-1178 1180 -1179 0
558 -1179 0
-558 1179 0
1181 1182 0
-1183 1182 0
-1181 1183 -1182 0
559 -1182 0
-559 1182 0
1184 1185 0
-1186 1185 0
-1184 1186 -1185 0
560 -1185 0
-560 1185 0
1187 1188 0
-1189 1188 0
-1187 1189 -1188 0
561 -1188 0
-561 1188 0
1190 1191 0
1191 -1192 0
-1190 1192 -1191 0
562 -1191 0
-562 1191 0
1193 1194 0
-1195 1194 0
-1193 1195 -1194 0
595 -1194 0
-595 1194 0
1196 1197 0
-1198 1197 0
-1196 1198 -1197 0
597 -1197 0
-597 1197 0
1199 1200 0
1200 -1201 0
-1199 1201 -1200 0
598 -1200 0
-598 1200 0
1202 1203 0
-1204 1203 0
-1202 1204 -1203 0
599 -1203 0
-599 1203 0
1205 1206 0
-1207 1206 0
-1205 1207 -1206 0
600 -1206 0
-600 1206 0
1208 1209 0
-1210 1209 0
-1208 1210 -1209 0
601 -1209 0
-601 1209 0
1211 1212 0
-1213 1212 0
-1211 1213 -1212 0
602 -1212 0
-602 1212 0
1214 1215 0
1215 -1216 0
-1214 1216 -1215 0
603 -1215 0
-603 1215 0
1217 1218 0
-1219 1218 0
-1217 1219 -1218 0
604 -1218 0
-604 1218 0
1220 1221 0
1221 -1222 0
-1220 1222 -1221 0
605 -1221 0
-605 1221 0
1223 1224 0
-1225 1224 0
-1223 1225 -1224 0
634 -1224 0
-634 1224 0
1226 1227 0
-1228 1227 0
-1226 1228 -1227 0
636 -1227 0
-636 1227 0
1229 1230 0
1230 -1231 0
-1229 1231 -1230 0
637 -1230 0
-637 1230 0
1232 1233 0
-1234 1233 0
-1232 1234 -1233 0
638 -1233 0
-638 1233 0
1235 1236 0
1236 -1237 0
-1235 1237 -1236 0
639 -1236 0
-639 1236 0
1238 1239 0
-1240 1239 0
-1238 1240 -1239 0
640 -1239 0
-640 1239 0
1241 1242 0
-1243 1242 0
-1241 1243 -1242 0
641 -1242 0
-641 1242 0
1244 1245 0
-1246 1245 0
-1244 1246 -1245 0
642 -1245 0
-642 1245 0
1247 1248 0
-1249 1248 0
-1247 1249 -1248 0
643 -1248 0
-643 1248 0
1250 1251 0
-1252 1251 0
-1250 1252 -1251 0
644 -1251 0
-644 1251 0
1253 1254 0
1254 -1255 0
-1253 1255 -1254 0
645 -1254 0
-645 1254 0
1256 1257 0
1257 -1258 0
-1256 1258 -1257 0
646 -1257 0
-646 1257 0
1259 1260 0
1260 -1261 0
-1259 1261 -1260 0
683 -1260 0
-683 1260 0
1262 1263 0
-1264 1263 0
-1262 1264 -1263 0
685 -1263 0
-685 1263 0
1265 1266 0
-1267 1266 0
-1265 1267 -1266 0
686 -1266 0
-686 1266 0
1268 1269 0
1269 -1270 0
-1268 1270 -1269 0
687 -1269 0
-687 1269 0
1271 1272 0
-1273 1272 0
-1271 1273 -1272 0
688 -1272 0
-688 1272 0
1274 1275 0
-1276 1275 0
-1274 1276 -1275 0
689 -1275 0
-689 1275 0
1277 1278 0
-1279 1278 0
-1277 1279 -1278 0
690 -1278 0
-690 1278 0
1280 1281 0
-1282 1281 0
-1280 1282 -1281 0
691 -1281 0
-691 1281 0
1283 1284 0
-1285 1284 0
-1283 1285 -1284 0
692 -1284 0
-692 1284 0
1286 1287 0
1287 -1288 0
-1286 1288 -1287 0
693 -1287 0
-693 1287 0
1289 1290 0
-1291 1290 0
-1289 1291 -1290 0
726 -1290 0
-726 1290 0
1292 1293 0
-1294 1293 0
-1292 1294 -1293 0
728 -1293 0
-728 1293 0
1295 1296 0
-1297 1296 0
-1295 1297 -1296 0
729 -1296 0
-729 1296 0
1298 1299 0
1299 -1300 0
-1298 1300 -1299 0
730 -1299 0
-730 1299 0
1301 1302 0
-1303 1302 0
-1301 1303 -1302 0
731 -1302 0
-731 1302 0
1304 1305 0
1305 -1306 0
-1304 1306 -1305 0
732 -1305 0
-732 1305 0
1307 1308 0
-1309 1308 0
-1307 1309 -1308 0
733 -1308 0
-733 1308 0
1310 1311 0
-1312 1311 0
-1310 1312 -1311 0
734 -1311 0
-734 1311 0
1313 1314 0
-1315 1314 0
-1313 1315 -1314 0
735 -1314 0
-735 1314 0
-764 0
767 0
770 0
-773 0
-776 0
-779 0
-782 0
-785 0
-788 0
-791 0
-794 0
-797 0
800 0
-803 0
806 0
-809 0
-812 0
-815 0
-818 0
821 0
824 0
827 0
830 0
833 0
836 0
839 0
842 0
-845 0
-848 0
-851 0
854 0
-857 0
-860 0
-863 0
-866 0
-869 0
872 0
875 0
878 0
881 0
-884 0
-887 0
-890 0
-893 0
896 0
-899 0
-902 0
-905 0
908 0
911 0
-914 0
917 0
-920 0
-923 0
-926 0
-929 0
932 0
935 0
-938 0
-941 0
944 0
-947 0
950 0
-953 0
956 0
959 0
-962 0
-965 0
968 0
971 0
-974 0
-977 0
980 0
983 0
986 0
989 0
992 0
-995 0
-998 0
-1001 0
1004 0
1007 0
1010 0
-1013 0
1016 0
-1019 0
-1022 0
-1025 0
1028 0
-1031 0
1034 0
1037 0
1040 0
1043 0
-1046 0
1049 0
-1052 0
-1055 0
-1058 0
-1061 0
1064 0
-1067 0
1070 0
1073 0
1076 0
-1079 0
-1082 0
-1085 0
-1088 0
1091 0
-1094 0
-1097 0
-1100 0
1103 0
1106 0
1109 0
1112 0
-1115 0
1118 0
1121 0
-1124 0
1127 0
1130 0
1133 0
-1136 0
-1139 0
1142 0
-1145 0
1148 0
1151 0
-1154 0
1157 0
-1160 0
-1163 0
-1166 0
1169 0
-1172 0
1175 0
1178 0
1181 0
-1184 0
-1187 0
1190 0
-1193 0
-1196 0
1199 0
-1202 0
1205 0
-1208 0
-1211 0
1214 0
1217 0
1220 0
1223 0
-1226 0
1229 0
-1232 0
1235 0
1238 0
-1241 0
-1244 0
-1247 0
-1250 0
1253 0
1256 0
1259 0
1262 0
1265 0
1268 0
-1271 0
-1274 0
1277 0
-1280 0
-1283 0
1286 0
1289 0
-1292 0
1295 0
1298 0
-1301 0
1304 0
-1307 0
1310 0
1313 0
-1316 -1317 0
766 -1316 0
-1316 -769 0
-1316 -772 0
-1316 -775 0
-1316 -778 0
-1316 -781 0
-1316 -784 0
787 -1316 0
790 -1316 0
793 -1316 0
796 -1316 0
799 -1316 0
-1316 -802 0
-1316 -805 0
-1316 -808 0
-1316 -811 0
-1316 -814 0
-1316 -817 0
820 -1316 0
-1316 -823 0
-1316 -826 0
-1316 -829 0
-1316 -832 0
-1316 -835 0
-1316 -838 0
-1316 -841 0
-1316 -844 0
-1316 -847 0
-1316 -850 0
853 -1316 0
-1316 -856 0
-1316 -859 0
862 -1316 0
865 -1316 0
868 -1316 0
-1316 -871 0
-1316 -874 0
-1316 -877 0
-1316 -880 0
-1316 -883 0
-1316 -886 0
-1316 -889 0
892 -1316 0
895 -1316 0
-1316 -898 0
-1316 -901 0
904 -1316 0
907 -1316 0
-1316 -910 0
-1316 -913 0
-1316 -916 0
-1316 -919 0
-1316 -922 0
-1316 -925 0
-1316 -928 0
-1316 -931 0
-1316 -934 0
-1316 -937 0
-1316 -940 0
-1316 -943 0
-1316 -946 0
-1316 -949 0
-1316 -952 0
-1316 -955 0
-1316 -958 0
-1316 -961 0
-1316 -964 0
967 -1316 0
-1316 -970 0
-1316 -973 0
-1316 -976 0
-1316 -979 0
-1316 -982 0
-1316 -985 0
-1316 -988 0
-1316 -991 0
-1316 -994 0
997 -1316 0
1000 -1316 0
1003 -1316 0
-1316 -1006 0
-1316 -1009 0
-1316 -1012 0
-1316 -1015 0
-1316 -1018 0
-1316 -1021 0
-1316 -1024 0
1027 -1316 0
1030 -1316 0
1033 -1316 0
1036 -1316 0
1039 -1316 0
1042 -1316 0
1045 -1316 0
1048 -1316 0
-1316 -1051 0
-1316 -1054 0
1057 -1316 0
-1316 -1060 0
-1316 -1063 0
1066 -1316 0
1069 -1316 0
1072 -1316 0
1075 -1316 0
1078 -1316 0
-1316 -1081 0
1084 -1316 0
-1316 -1087 0
-1316 -1090 0
1093 -1316 0
1096 -1316 0
-1316 -1099 0
1102 -1316 0
-1316 -1105 0
-1316 -1108 0
1111 -1316 0
1114 -1316 0
1117 -1316 0
1120 -1316 0
-1316 -1123 0
-1316 -1126 0
-1316 -1129 0
1132 -1316 0
1135 -1316 0
-1316 -1138 0
-1316 -1141 0
-1316 -1144 0
1147 -1316 0
1150 -1316 0
1153 -1316 0
1156 -1316 0
1159 -1316 0
-1316 -1162 0
-1316 -1165 0
-1316 -1168 0
-1316 -1171 0
1174 -1316 0
-1316 -1177 0
1180 -1316 0
-1316 -1183 0
-1316 -1186 0
-1316 -1189 0
1192 -1316 0
-1316 -1195 0
-1316 -1198 0
1201 -1316 0
-1316 -1204 0
-1316 -1207 0
1210 -1316 0
1213 -1316 0
1216 -1316 0
-1316 -1219 0
1222 -1316 0
-1316 -1225 0
1228 -1316 0
1231 -1316 0
-1316 -1234 0
1237 -1316 0
-1316 -1240 0
1243 -1316 0
1246 -1316 0
1249 -1316 0
1252 -1316 0
1255 -1316 0
1258 -1316 0
1261 -1316 0
-1316 -1264 0
-1316 -1267 0
1270 -1316 0
-1316 -1273 0
-1316 -1276 0
-1316 -1279 0
1282 -1316 0
1285 -1316 0
1288 -1316 0
-1316 -1291 0
1294 -1316 0
-1316 -1297 0
1300 -1316 0
-1316 -1303 0
1306 -1316 0
1309 -1316 0
-1316 -1312 0
-1316 -1315 0
-1317 -766 0
769 -1317 0
772 -1317 0
-1317 -775 0
-1317 -778 0
-1317 -781 0
-1317 -784 0
-1317 -787 0
-1317 -790 0
-1317 -793 0
-1317 -796 0
-1317 -799 0
802 -1317 0
-1317 -805 0
808 -1317 0
-1317 -811 0
-1317 -814 0
-1317 -817 0
-1317 -820 0
823 -1317 0
826 -1317 0
829 -1317 0
832 -1317 0
835 -1317 0
838 -1317 0
841 -1317 0
844 -1317 0
-1317 -847 0
-1317 -850 0
-1317 -853 0
856 -1317 0
-1317 -859 0
-1317 -862 0
-1317 -865 0
-1317 -868 0
-1317 -871 0
874 -1317 0
877 -1317 0
880 -1317 0
883 -1317 0
-1317 -886 0
-1317 -889 0
-1317 -892 0
-1317 -895 0
898 -1317 0
-1317 -901 0
-1317 -904 0
-1317 -907 0
910 -1317 0
913 -1317 0
-1317 -916 0
919 -1317 0
-1317 -922 0
-1317 -925 0
-1317 -928 0
-1317 -931 0
934 -1317 0
937 -1317 0
-1317 -940 0
-1317 -943 0
946 -1317 0
-1317 -949 0
952 -1317 0
-1317 -955 0
958 -1317 0
961 -1317 0
-1317 -964 0
-1317 -967 0
970 -1317 0
973 -1317 0
-1317 -976 0
-1317 -979 0
982 -1317 0
985 -1317 0
988 -1317 0
991 -1317 0
994 -1317 0
-1317 -997 0
-1317 -1000 0
-1317 -1003 0
1006 -1317 0
1009 -1317 0
1012 -1317 0
-1317 -1015 0
1018 -1317 0
-1317 -1021 0
-1317 -1024 0
-1317 -1027 0
1030 -1317 0
-1317 -1033 0
1036 -1317 0
1039 -1317 0
1042 -1317 0
1045 -1317 0
-1317 -1048 0
1051 -1317 0
-1317 -1054 0
-1317 -1057 0
-1317 -1060 0
-1317 -1063 0
1066 -1317 0
-1317 -1069 0
1072 -1317 0
1075 -1317 0
1078 -1317 0
-1317 -1081 0
-1317 -1084 0
-1317 -1087 0
-1317 -1090 0
1093 -1317 0
-1317 -1096 0
-1317 -1099 0
-1317 -1102 0
1105 -1317 0
1108 -1317 0
1111 -1317 0
1114 -1317 0
-1317 -1117 0
1120 -1317 0
1123 -1317 0
-1317 -1126 0
1129 -1317 0
1132 -1317 0
1135 -1317 0
-1317 -1138 0
-1317 -1141 0
1144 -1317 0
-1317 -1147 0
1150 -1317 0
1153 -1317 0
-1317 -1156 0
1159 -1317 0
-1317 -1162 0
-1317 -1165 0
-1317 -1168 0
1171 -1317 0
-1317 -1174 0
1177 -1317 0
1180 -1317 0
1183 -1317 0
-1317 -1186 0
-1317 -1189 0
1192 -1317 0
-1317 -1195 0
-1317 -1198 0
1201 -1317 0
-1317 -1204 0
1207 -1317 0
-1317 -1210 0
-1317 -1213 0
1216 -1317 0
1219 -1317 0
1222 -1317 0
1225 -1317 0
-1317 -1228 0
1231 -1317 0
-1317 -1234 0
1237 -1317 0
1240 -1317 0
-1317 -1243 0
-1317 -1246 0
-1317 -1249 0
-1317 -1252 0
1255 -1317 0
1258 -1317 0
1261 -1317 0
1264 -1317 0
1267 -1317 0
1270 -1317 0
-1317 -1273 0
-1317 -1276 0
1279 -1317 0
-1317 -1282 0
-1317 -1285 0
1288 -1317 0
1291 -1317 0
-1317 -1294 0
1297 -1317 0
1300 -1317 0
-1317 -1303 0
1306 -1317 0
-1317 -1309 0
1312 -1317 0
1315 -1317 0
1316 1317 0
-1318 0
-1319 0
-1320 0
-1321 0
-1322 0
-1323 0
-1324 0
-1325 0
